Q:[
30000	50000	100000
]

q:
[
0
3000
3000
3000
3400
3600
3600
3600
3600
3600
3600
4000
4000
4000
4000
4000
]

L:
[30000	25000	20000
30000	25000	20000
30000	25000	20000
30000	25000	20000
30000	25000	20000
30000	25000	20000
30000	25000	20000
30000	25000	20000
30000	25000	20000
30000	25000	20000
30000	25000	20000
30000	50000	100000
30000	50000	100000
30000	50000	100000
30000	50000	100000
]

coord:
[
0	0
46	59
43	59
58	82
54	22
80	19
67	22
84	7
18	41
53	4
18	63
92	19
32	38
53	93
87	27
16	47]



c:[1 1.3 2]

r:[2	3	5
10	10	10
5	7	10
10	10	10
10	10	10
5	7	10
2	3	5
2	3	5
1	2	5
2	3	5
3	5	7
10	10	10
5	7	10
10	10	10
10	10	10
]

